200
100
100
99
99
99
98
97
97
97
96
96
95
95
95
94
94
93
93
93
93
93
92
92
91
90
89
89
89
88
87
87
87
87
87
87
87
86
85
84
84
83
82
80
80
80
80
79
79
78
78
77
76
76
74
74
74
74
73
73
71
70
69
69
68
68
68
68
68
68
67
67
66
66
66
65
64
63
63
62
62
62
61
61
61
60
60
60
60
59
59
58
57
57
57
57
55
55
54
54
53
53
53
51
51
51
50
49
49
48
48
48
48
47
46
46
46
45
45
45
43
43
43
42
42
42
42
42
41
41
40
39
38
37
37
37
37
37
36
36
35
35
35
35
34
34
34
32
31
31
30
29
29
28
28
26
26
26
25
24
24
24
23
22
21
21
21
20
20
20
19
19
19
19
19
19
17
14
13
12
12
11
10
10
10
9
9
8
8
8
8
7
6
6
5
5
5
4
3
2
2
2
